(set-logic HORN)
(set-info :source |
    Benchmark: C_VC
    Output by Princess (http://www.philipp.ruemmer.org/princess.shtml)
|)
(set-info :status sat)
(declare-heap Heap Addr HeapObject
 defObj
 ((HeapObject 0)) (
  (
   (O_Int (getInt Int))
   (O_UInt (getUInt Int))
   (O_Addr (getAddr Addr))
   (defObj)
  )
))
(declare-fun inv_main10 (Heap Int Int AddrRange AddrRange AddrRange) Bool)
(declare-fun inv_main12 (Heap Int Int AddrRange AddrRange AddrRange) Bool)
(declare-fun inv_main14 (Heap Int Int AddrRange AddrRange AddrRange) Bool)
(declare-fun inv_main15 (Heap Int Int AddrRange AddrRange AddrRange) Bool)
(declare-fun inv_main17 (Heap Int Int AddrRange AddrRange AddrRange Int) Bool)
(declare-fun inv_main18 (Heap Int Int AddrRange AddrRange AddrRange Int) Bool)
(declare-fun inv_main21 (Heap Int Int AddrRange AddrRange AddrRange) Bool)
(declare-fun inv_main7 (Heap Int Int AddrRange AddrRange AddrRange) Bool)
(assert (forall ((var0 AddrRange) (var1 Int) (var2 Heap) (var3 AddrRange) (var4 AddrRange) (var5 Int) (var6 Int) (var7 Int) (var8 Heap) (var9 AddrRange) (var10 Int) (var11 Int) (var12 Int) (var13 Int) (var14 Heap) (var15 Heap)) (or (not (and (and (and (and (= var15 emptyHeap) (and (and (and (= var14 (newBatchHeap (batchAlloc emptyHeap (O_Int var13) 100000))) (= var12 var11)) (= var10 100000)) (= var9 (newAddrRange (batchAlloc emptyHeap (O_Int var13) 100000))))) (and (and (and (and (= var8 (newBatchHeap (batchAlloc emptyHeap (O_Int var7) var10))) (= var6 var12)) (= var5 var10)) (= var4 var9)) (= var3 (newAddrRange (batchAlloc emptyHeap (O_Int var7) var10))))) (= var2 (newBatchHeap (batchAlloc emptyHeap (O_Int var1) var5)))) (= var0 (newAddrRange (batchAlloc emptyHeap (O_Int var1) var5))))) (inv_main7 var2 var6 var5 var4 var3 var0))))
(assert (forall ((var0 Int) (var1 AddrRange) (var2 AddrRange) (var3 AddrRange) (var4 Int) (var5 Int) (var6 Heap) (var7 Int) (var8 AddrRange) (var9 AddrRange) (var10 AddrRange) (var11 Int) (var12 Int) (var13 Heap)) (or (not (and (inv_main18 var13 var12 var11 var10 var9 var8 var7) (and (and (and (is-O_Int (read var13 (nthAddrRange var8 var12))) (is-O_Int (read var13 (nthAddrRange var8 var12)))) (and (and (and (and (and (= var6 (write var13 (nthAddrRange var8 var12) (O_Int var7))) (= var5 var12)) (= var4 var11)) (= var3 var10)) (= var2 var9)) (= var1 var8))) (= var0 (+ var5 1))))) (inv_main14 var6 var0 var4 var3 var2 var1))))
(assert (forall ((var0 Int) (var1 AddrRange) (var2 AddrRange) (var3 AddrRange) (var4 Int) (var5 Int) (var6 Heap)) (or (not (and (inv_main7 var6 var5 var4 var3 var2 var1) (and (not (<= 0 (+ var4 (- 1)))) (= var0 0)))) (inv_main14 var6 var0 var4 var3 var2 var1))))
(assert (forall ((var0 Int) (var1 AddrRange) (var2 AddrRange) (var3 AddrRange) (var4 Heap) (var5 Int) (var6 Int) (var7 AddrRange) (var8 AddrRange) (var9 AddrRange) (var10 Int) (var11 Int) (var12 Heap)) (or (not (and (inv_main12 var12 var11 var10 var9 var8 var7) (and (and (not (<= 0 (+ (+ var6 (* (- 1) (+ var5 1))) (- 1)))) (and (and (is-O_Int (read var12 (nthAddrRange var8 var11))) (is-O_Int (read var12 (nthAddrRange var8 var11)))) (and (and (and (and (and (= var4 (write var12 (nthAddrRange var8 var11) (O_Int 2))) (= var5 var11)) (= var6 var10)) (= var3 var9)) (= var2 var8)) (= var1 var7)))) (= var0 0)))) (inv_main14 var4 var0 var6 var3 var2 var1))))
(assert (forall ((var0 AddrRange) (var1 AddrRange) (var2 AddrRange) (var3 Int) (var4 Int) (var5 Heap)) (or (not (and (inv_main14 var5 var4 var3 var2 var1 var0) (<= 0 (+ (+ var3 (* (- 1) var4)) (- 1))))) (inv_main15 var5 var4 var3 var2 var1 var0))))
(assert (forall ((var0 Int) (var1 Int) (var2 AddrRange) (var3 AddrRange) (var4 AddrRange) (var5 Int) (var6 Int) (var7 Heap)) (or (not (and (inv_main17 var7 var6 var5 var4 var3 var2 var1) (and (is-O_Int (read var7 (nthAddrRange var3 var6))) (= var0 (+ var1 (getInt (read var7 (nthAddrRange var3 var6)))))))) (inv_main18 var7 var6 var5 var4 var3 var2 var0))))
(assert (forall ((var0 Heap) (var1 AddrRange) (var2 AddrRange) (var3 AddrRange) (var4 Int) (var5 Int) (var6 Heap)) (or (not (and (inv_main10 var6 var5 var4 var3 var2 var1) (and (and (is-O_Int (read var6 (nthAddrRange var3 var5))) (is-O_Int (read var6 (nthAddrRange var3 var5)))) (= var0 (write var6 (nthAddrRange var3 var5) (O_Int 1)))))) (inv_main12 var0 var5 var4 var3 var2 var1))))
(assert (forall ((var0 Int) (var1 AddrRange) (var2 AddrRange) (var3 AddrRange) (var4 Int) (var5 Int) (var6 Heap)) (or (not (and (inv_main14 var6 var5 var4 var3 var2 var1) (and (and (<= 0 (+ (+ var4 (- 1)) (- 1))) (not (<= 0 (+ (+ var4 (* (- 1) var5)) (- 1))))) (= var0 1)))) (inv_main21 var6 var0 var4 var3 var2 var1))))
(assert (forall ((var0 Int) (var1 AddrRange) (var2 AddrRange) (var3 AddrRange) (var4 Int) (var5 Int) (var6 Heap)) (or (not (and (inv_main21 var6 var5 var4 var3 var2 var1) (and (and (<= 0 (+ (+ var4 (* (- 1) (+ var5 1))) (- 1))) (is-O_Int (read var6 (nthAddrRange var1 var5)))) (= var0 (+ var5 1))))) (inv_main21 var6 var0 var4 var3 var2 var1))))
(assert (forall ((var0 Int) (var1 AddrRange) (var2 AddrRange) (var3 AddrRange) (var4 Int) (var5 Int) (var6 Heap)) (or (not (and (inv_main7 var6 var5 var4 var3 var2 var1) (and (<= 0 (+ var4 (- 1))) (= var0 0)))) (inv_main10 var6 var0 var4 var3 var2 var1))))
(assert (forall ((var0 Int) (var1 AddrRange) (var2 AddrRange) (var3 AddrRange) (var4 Heap) (var5 Int) (var6 Int) (var7 AddrRange) (var8 AddrRange) (var9 AddrRange) (var10 Int) (var11 Int) (var12 Heap)) (or (not (and (inv_main12 var12 var11 var10 var9 var8 var7) (and (and (<= 0 (+ (+ var6 (* (- 1) (+ var5 1))) (- 1))) (and (and (is-O_Int (read var12 (nthAddrRange var8 var11))) (is-O_Int (read var12 (nthAddrRange var8 var11)))) (and (and (and (and (and (= var4 (write var12 (nthAddrRange var8 var11) (O_Int 2))) (= var5 var11)) (= var6 var10)) (= var3 var9)) (= var2 var8)) (= var1 var7)))) (= var0 (+ var5 1))))) (inv_main10 var4 var0 var6 var3 var2 var1))))
(assert (forall ((var0 Int) (var1 AddrRange) (var2 AddrRange) (var3 AddrRange) (var4 Int) (var5 Int) (var6 Heap)) (or (not (and (inv_main15 var6 var5 var4 var3 var2 var1) (and (is-O_Int (read var6 (nthAddrRange var3 var5))) (= var0 (getInt (read var6 (nthAddrRange var3 var5))))))) (inv_main17 var6 var5 var4 var3 var2 var1 var0))))
(assert (forall ((var0 AddrRange) (var1 AddrRange) (var2 AddrRange) (var3 Int) (var4 Int) (var5 Heap)) (not (and (inv_main10 var5 var4 var3 var2 var1 var0) (not (is-O_Int (read var5 (nthAddrRange var2 var4))))))))
(assert (forall ((var0 AddrRange) (var1 AddrRange) (var2 AddrRange) (var3 Int) (var4 Int) (var5 Heap)) (not (and (inv_main10 var5 var4 var3 var2 var1 var0) (and (is-O_Int (read var5 (nthAddrRange var2 var4))) (not (within var2 (nthAddrRange var2 var4))))))))
(assert (forall ((var0 AddrRange) (var1 AddrRange) (var2 AddrRange) (var3 Int) (var4 Int) (var5 Heap)) (not (and (inv_main10 var5 var4 var3 var2 var1 var0) (and (is-O_Int (read var5 (nthAddrRange var2 var4))) (not (is-O_Int (read var5 (nthAddrRange var2 var4)))))))))
(assert (forall ((var0 AddrRange) (var1 AddrRange) (var2 AddrRange) (var3 Int) (var4 Int) (var5 Heap)) (not (and (inv_main12 var5 var4 var3 var2 var1 var0) (not (is-O_Int (read var5 (nthAddrRange var1 var4))))))))
(assert (forall ((var0 AddrRange) (var1 AddrRange) (var2 AddrRange) (var3 Int) (var4 Int) (var5 Heap)) (not (and (inv_main12 var5 var4 var3 var2 var1 var0) (and (is-O_Int (read var5 (nthAddrRange var1 var4))) (not (within var1 (nthAddrRange var1 var4))))))))
(assert (forall ((var0 AddrRange) (var1 AddrRange) (var2 AddrRange) (var3 Int) (var4 Int) (var5 Heap)) (not (and (inv_main12 var5 var4 var3 var2 var1 var0) (and (is-O_Int (read var5 (nthAddrRange var1 var4))) (not (is-O_Int (read var5 (nthAddrRange var1 var4)))))))))
(assert (forall ((var0 AddrRange) (var1 AddrRange) (var2 AddrRange) (var3 Int) (var4 Int) (var5 Heap)) (not (and (inv_main15 var5 var4 var3 var2 var1 var0) (not (is-O_Int (read var5 (nthAddrRange var2 var4))))))))
(assert (forall ((var0 AddrRange) (var1 AddrRange) (var2 AddrRange) (var3 Int) (var4 Int) (var5 Heap)) (not (and (inv_main15 var5 var4 var3 var2 var1 var0) (and (is-O_Int (read var5 (nthAddrRange var2 var4))) (not (within var2 (nthAddrRange var2 var4))))))))
(assert (forall ((var0 Int) (var1 AddrRange) (var2 AddrRange) (var3 AddrRange) (var4 Int) (var5 Int) (var6 Heap)) (not (and (inv_main17 var6 var5 var4 var3 var2 var1 var0) (not (is-O_Int (read var6 (nthAddrRange var2 var5))))))))
(assert (forall ((var0 Int) (var1 AddrRange) (var2 AddrRange) (var3 AddrRange) (var4 Int) (var5 Int) (var6 Heap)) (not (and (inv_main17 var6 var5 var4 var3 var2 var1 var0) (and (is-O_Int (read var6 (nthAddrRange var2 var5))) (not (within var2 (nthAddrRange var2 var5))))))))
(assert (forall ((var0 Int) (var1 AddrRange) (var2 AddrRange) (var3 AddrRange) (var4 Int) (var5 Int) (var6 Heap)) (not (and (inv_main18 var6 var5 var4 var3 var2 var1 var0) (not (is-O_Int (read var6 (nthAddrRange var1 var5))))))))
(assert (forall ((var0 Int) (var1 AddrRange) (var2 AddrRange) (var3 AddrRange) (var4 Int) (var5 Int) (var6 Heap)) (not (and (inv_main18 var6 var5 var4 var3 var2 var1 var0) (and (is-O_Int (read var6 (nthAddrRange var1 var5))) (not (within var1 (nthAddrRange var1 var5))))))))
(assert (forall ((var0 Int) (var1 AddrRange) (var2 AddrRange) (var3 AddrRange) (var4 Int) (var5 Int) (var6 Heap)) (not (and (inv_main18 var6 var5 var4 var3 var2 var1 var0) (and (is-O_Int (read var6 (nthAddrRange var1 var5))) (not (is-O_Int (read var6 (nthAddrRange var1 var5)))))))))
(assert (forall ((var0 AddrRange) (var1 AddrRange) (var2 AddrRange) (var3 Int) (var4 Int) (var5 Heap)) (not (and (inv_main21 var5 var4 var3 var2 var1 var0) (not (is-O_Int (read var5 (nthAddrRange var0 var4))))))))
(assert (forall ((var0 AddrRange) (var1 AddrRange) (var2 AddrRange) (var3 Int) (var4 Int) (var5 Heap)) (not (and (inv_main21 var5 var4 var3 var2 var1 var0) (not (within var0 (nthAddrRange var0 var4)))))))
(assert (forall ((var0 AddrRange) (var1 AddrRange) (var2 AddrRange) (var3 Int) (var4 Int) (var5 Heap)) (not (and (inv_main21 var5 var4 var3 var2 var1 var0) (not (is-O_Int (read var5 (nthAddrRange var0 var4))))))))
(assert (forall ((var0 AddrRange) (var1 AddrRange) (var2 AddrRange) (var3 Int) (var4 Int) (var5 Heap)) (not (and (inv_main21 var5 var4 var3 var2 var1 var0) (and (is-O_Int (read var5 (nthAddrRange var0 var4))) (not (within var0 (nthAddrRange var0 var4))))))))
(assert (forall ((var0 AddrRange) (var1 AddrRange) (var2 AddrRange) (var3 Int) (var4 Int) (var5 Heap)) (not (and (inv_main21 var5 var4 var3 var2 var1 var0) (and (is-O_Int (read var5 (nthAddrRange var0 var4))) (not (<= 0 (+ (getInt (read var5 (nthAddrRange var0 var4))) (- 3)))))))))
(check-sat)
